80 81 88 2 6 5 3 43 41 93 54 96 94 67 56 95 91 66 65 99 82 84 83 57 24 22 20 49 21 48 18 89 32 30 33 28 26 27 29 31 34 35 36 
61 40 42 72 92 71 50 62 68 70 44 39 38 1 45 46 8 7 79 78 17 16 97 86 64 19 51 63 85 74 52 90 98 60 73 10 
47 14 59 12 75 23 69 11 76 87 9 53 37 4 55 13 58 25 77 100 
15 

